c Standarized MaxSat Instance
c{
c "sha1sum": "3efab8e5bfc6e6f863f08634153d042982af3934",
c "nvars": 40,
c "ncls": 1178,
c "nhards": 0,
c "nhard_len_stats":
c    { "min": 0, "max": 0, "ave": 0.00,
c      "stddev": 0.00 },
c "nsofts": 1178,
c "nsoft_len_stats":
c    { "min": 2, "max": 2, "ave": 2.00,
c      "stddev": 0.00 },
c "nsoft_wts": 10,
c "soft_wt_stats":
c    { "min": 1, "max": 10, "ave": 5.67,
c      "stddev": 2.81 }
c}
c------------------------------------------------------------
c FILE:  brock400_4.b
c
c Graph Generator
c
c By: Mark Brockington (brock@cs.ualberta.ca)
c and Joe Culberson (joe@cs.ualberta.ca)
c
c Graph Size:400, Clique Size: 33
c Seed:3, Edge Density:  0.75000
c Depth 1 Hiding
c
c Clique Elements are:
c 269 293 342 393 246 395 388 7 333 323 
c 111 156 134 153 160 361 16 185 339 196 
c 244 392 201 241 210 6 18 240 266 352 
c 146 379 265 
c
c Estimated Size of Uncompressed File:   0.6MB
c
p wcnf 40 1178 6677
9 1 2 0
9 -1 -2 0
4 1 3 0
4 -1 -3 0
8 1 4 0
8 -1 -4 0
8 1 6 0
8 -1 -6 0
10 1 9 0
10 -1 -9 0
2 1 10 0
2 -1 -10 0
4 1 11 0
4 -1 -11 0
8 1 12 0
8 -1 -12 0
3 1 13 0
3 -1 -13 0
6 1 14 0
6 -1 -14 0
5 1 15 0
5 -1 -15 0
7 1 16 0
7 -1 -16 0
4 1 17 0
4 -1 -17 0
6 1 18 0
6 -1 -18 0
10 1 19 0
10 -1 -19 0
10 1 20 0
10 -1 -20 0
7 1 21 0
7 -1 -21 0
8 1 22 0
8 -1 -22 0
2 1 23 0
2 -1 -23 0
7 1 24 0
7 -1 -24 0
1 1 25 0
1 -1 -25 0
3 1 26 0
3 -1 -26 0
2 1 27 0
2 -1 -27 0
9 1 28 0
9 -1 -28 0
2 1 30 0
2 -1 -30 0
5 1 31 0
5 -1 -31 0
2 1 32 0
2 -1 -32 0
2 1 33 0
2 -1 -33 0
10 1 35 0
10 -1 -35 0
3 1 36 0
3 -1 -36 0
6 1 38 0
6 -1 -38 0
9 1 39 0
9 -1 -39 0
7 1 40 0
7 -1 -40 0
3 2 4 0
3 -2 -4 0
7 2 5 0
7 -2 -5 0
6 2 6 0
6 -2 -6 0
5 2 9 0
5 -2 -9 0
10 2 12 0
10 -2 -12 0
3 2 13 0
3 -2 -13 0
8 2 14 0
8 -2 -14 0
6 2 16 0
6 -2 -16 0
8 2 17 0
8 -2 -17 0
5 2 18 0
5 -2 -18 0
9 2 19 0
9 -2 -19 0
3 2 20 0
3 -2 -20 0
4 2 21 0
4 -2 -21 0
9 2 22 0
9 -2 -22 0
10 2 23 0
10 -2 -23 0
1 2 24 0
1 -2 -24 0
10 2 25 0
10 -2 -25 0
6 2 27 0
6 -2 -27 0
1 2 28 0
1 -2 -28 0
2 2 29 0
2 -2 -29 0
7 2 30 0
7 -2 -30 0
9 2 31 0
9 -2 -31 0
4 2 32 0
4 -2 -32 0
1 2 33 0
1 -2 -33 0
1 2 34 0
1 -2 -34 0
5 2 35 0
5 -2 -35 0
1 2 38 0
1 -2 -38 0
3 2 40 0
3 -2 -40 0
10 3 6 0
10 -3 -6 0
10 3 7 0
10 -3 -7 0
9 3 8 0
9 -3 -8 0
3 3 10 0
3 -3 -10 0
6 3 11 0
6 -3 -11 0
4 3 13 0
4 -3 -13 0
8 3 14 0
8 -3 -14 0
6 3 15 0
6 -3 -15 0
7 3 16 0
7 -3 -16 0
6 3 19 0
6 -3 -19 0
1 3 20 0
1 -3 -20 0
5 3 21 0
5 -3 -21 0
10 3 22 0
10 -3 -22 0
10 3 23 0
10 -3 -23 0
8 3 25 0
8 -3 -25 0
3 3 27 0
3 -3 -27 0
8 3 28 0
8 -3 -28 0
7 3 29 0
7 -3 -29 0
4 3 31 0
4 -3 -31 0
7 3 34 0
7 -3 -34 0
2 3 35 0
2 -3 -35 0
5 3 38 0
5 -3 -38 0
9 3 39 0
9 -3 -39 0
9 3 40 0
9 -3 -40 0
4 4 7 0
4 -4 -7 0
3 4 8 0
3 -4 -8 0
9 4 9 0
9 -4 -9 0
4 4 10 0
4 -4 -10 0
7 4 11 0
7 -4 -11 0
10 4 12 0
10 -4 -12 0
6 4 13 0
6 -4 -13 0
7 4 14 0
7 -4 -14 0
9 4 15 0
9 -4 -15 0
5 4 16 0
5 -4 -16 0
10 4 17 0
10 -4 -17 0
4 4 18 0
4 -4 -18 0
9 4 21 0
9 -4 -21 0
7 4 23 0
7 -4 -23 0
10 4 24 0
10 -4 -24 0
5 4 25 0
5 -4 -25 0
3 4 26 0
3 -4 -26 0
10 4 27 0
10 -4 -27 0
10 4 28 0
10 -4 -28 0
2 4 29 0
2 -4 -29 0
9 4 30 0
9 -4 -30 0
7 4 31 0
7 -4 -31 0
5 4 32 0
5 -4 -32 0
7 4 33 0
7 -4 -33 0
3 4 34 0
3 -4 -34 0
8 4 36 0
8 -4 -36 0
4 4 38 0
4 -4 -38 0
5 4 40 0
5 -4 -40 0
3 5 6 0
3 -5 -6 0
2 5 7 0
2 -5 -7 0
3 5 8 0
3 -5 -8 0
6 5 9 0
6 -5 -9 0
5 5 10 0
5 -5 -10 0
2 5 11 0
2 -5 -11 0
10 5 15 0
10 -5 -15 0
2 5 16 0
2 -5 -16 0
2 5 17 0
2 -5 -17 0
5 5 18 0
5 -5 -18 0
8 5 19 0
8 -5 -19 0
10 5 20 0
10 -5 -20 0
10 5 21 0
10 -5 -21 0
7 5 23 0
7 -5 -23 0
4 5 24 0
4 -5 -24 0
8 5 25 0
8 -5 -25 0
4 5 26 0
4 -5 -26 0
3 5 29 0
3 -5 -29 0
3 5 30 0
3 -5 -30 0
6 5 31 0
6 -5 -31 0
3 5 32 0
3 -5 -32 0
2 5 34 0
2 -5 -34 0
8 5 35 0
8 -5 -35 0
2 5 36 0
2 -5 -36 0
8 5 37 0
8 -5 -37 0
2 5 38 0
2 -5 -38 0
8 5 40 0
8 -5 -40 0
1 6 9 0
1 -6 -9 0
10 6 10 0
10 -6 -10 0
1 6 12 0
1 -6 -12 0
6 6 13 0
6 -6 -13 0
2 6 14 0
2 -6 -14 0
3 6 15 0
3 -6 -15 0
8 6 16 0
8 -6 -16 0
8 6 18 0
8 -6 -18 0
7 6 19 0
7 -6 -19 0
10 6 20 0
10 -6 -20 0
7 6 21 0
7 -6 -21 0
8 6 22 0
8 -6 -22 0
1 6 25 0
1 -6 -25 0
2 6 26 0
2 -6 -26 0
6 6 27 0
6 -6 -27 0
1 6 29 0
1 -6 -29 0
1 6 30 0
1 -6 -30 0
3 6 32 0
3 -6 -32 0
5 6 33 0
5 -6 -33 0
9 6 34 0
9 -6 -34 0
6 6 35 0
6 -6 -35 0
8 6 36 0
8 -6 -36 0
1 6 37 0
1 -6 -37 0
2 6 40 0
2 -6 -40 0
10 7 8 0
10 -7 -8 0
3 7 9 0
3 -7 -9 0
9 7 10 0
9 -7 -10 0
2 7 11 0
2 -7 -11 0
10 7 12 0
10 -7 -12 0
1 7 14 0
1 -7 -14 0
9 7 15 0
9 -7 -15 0
1 7 16 0
1 -7 -16 0
1 7 17 0
1 -7 -17 0
10 7 20 0
10 -7 -20 0
6 7 21 0
6 -7 -21 0
2 7 22 0
2 -7 -22 0
2 7 23 0
2 -7 -23 0
4 7 26 0
4 -7 -26 0
10 7 27 0
10 -7 -27 0
9 7 28 0
9 -7 -28 0
4 7 29 0
4 -7 -29 0
6 7 30 0
6 -7 -30 0
6 7 31 0
6 -7 -31 0
5 7 32 0
5 -7 -32 0
7 7 33 0
7 -7 -33 0
1 7 34 0
1 -7 -34 0
6 7 35 0
6 -7 -35 0
8 7 36 0
8 -7 -36 0
4 7 37 0
4 -7 -37 0
10 7 39 0
10 -7 -39 0
6 7 40 0
6 -7 -40 0
9 8 10 0
9 -8 -10 0
8 8 12 0
8 -8 -12 0
7 8 13 0
7 -8 -13 0
1 8 14 0
1 -8 -14 0
8 8 15 0
8 -8 -15 0
9 8 18 0
9 -8 -18 0
10 8 19 0
10 -8 -19 0
9 8 20 0
9 -8 -20 0
9 8 21 0
9 -8 -21 0
10 8 22 0
10 -8 -22 0
8 8 23 0
8 -8 -23 0
10 8 26 0
10 -8 -26 0
10 8 28 0
10 -8 -28 0
7 8 30 0
7 -8 -30 0
5 8 31 0
5 -8 -31 0
2 8 32 0
2 -8 -32 0
9 8 33 0
9 -8 -33 0
9 8 34 0
9 -8 -34 0
1 8 35 0
1 -8 -35 0
7 8 36 0
7 -8 -36 0
3 8 37 0
3 -8 -37 0
7 8 40 0
7 -8 -40 0
3 9 10 0
3 -9 -10 0
8 9 11 0
8 -9 -11 0
4 9 13 0
4 -9 -13 0
4 9 14 0
4 -9 -14 0
3 9 15 0
3 -9 -15 0
1 9 16 0
1 -9 -16 0
7 9 17 0
7 -9 -17 0
3 9 19 0
3 -9 -19 0
7 9 21 0
7 -9 -21 0
6 9 22 0
6 -9 -22 0
10 9 23 0
10 -9 -23 0
3 9 24 0
3 -9 -24 0
6 9 25 0
6 -9 -25 0
8 9 26 0
8 -9 -26 0
2 9 27 0
2 -9 -27 0
5 9 29 0
5 -9 -29 0
6 9 30 0
6 -9 -30 0
10 9 31 0
10 -9 -31 0
5 9 34 0
5 -9 -34 0
4 9 36 0
4 -9 -36 0
9 9 38 0
9 -9 -38 0
5 9 39 0
5 -9 -39 0
1 10 11 0
1 -10 -11 0
4 10 12 0
4 -10 -12 0
6 10 14 0
6 -10 -14 0
9 10 15 0
9 -10 -15 0
3 10 16 0
3 -10 -16 0
7 10 17 0
7 -10 -17 0
5 10 18 0
5 -10 -18 0
5 10 20 0
5 -10 -20 0
4 10 21 0
4 -10 -21 0
8 10 22 0
8 -10 -22 0
2 10 23 0
2 -10 -23 0
7 10 24 0
7 -10 -24 0
1 10 25 0
1 -10 -25 0
5 10 26 0
5 -10 -26 0
7 10 27 0
7 -10 -27 0
7 10 30 0
7 -10 -30 0
7 10 31 0
7 -10 -31 0
4 10 32 0
4 -10 -32 0
2 10 34 0
2 -10 -34 0
7 10 35 0
7 -10 -35 0
7 10 37 0
7 -10 -37 0
8 10 40 0
8 -10 -40 0
4 11 12 0
4 -11 -12 0
8 11 13 0
8 -11 -13 0
3 11 15 0
3 -11 -15 0
10 11 16 0
10 -11 -16 0
7 11 19 0
7 -11 -19 0
7 11 20 0
7 -11 -20 0
3 11 21 0
3 -11 -21 0
6 11 22 0
6 -11 -22 0
1 11 23 0
1 -11 -23 0
3 11 25 0
3 -11 -25 0
9 11 26 0
9 -11 -26 0
7 11 27 0
7 -11 -27 0
1 11 28 0
1 -11 -28 0
2 11 29 0
2 -11 -29 0
4 11 30 0
4 -11 -30 0
6 11 31 0
6 -11 -31 0
6 11 32 0
6 -11 -32 0
7 11 33 0
7 -11 -33 0
3 11 34 0
3 -11 -34 0
8 11 36 0
8 -11 -36 0
3 11 37 0
3 -11 -37 0
4 11 39 0
4 -11 -39 0
2 11 40 0
2 -11 -40 0
10 12 14 0
10 -12 -14 0
1 12 15 0
1 -12 -15 0
9 12 17 0
9 -12 -17 0
4 12 21 0
4 -12 -21 0
2 12 22 0
2 -12 -22 0
5 12 24 0
5 -12 -24 0
10 12 25 0
10 -12 -25 0
10 12 27 0
10 -12 -27 0
8 12 30 0
8 -12 -30 0
7 12 31 0
7 -12 -31 0
2 12 33 0
2 -12 -33 0
7 12 34 0
7 -12 -34 0
4 12 35 0
4 -12 -35 0
8 12 36 0
8 -12 -36 0
10 12 37 0
10 -12 -37 0
10 12 38 0
10 -12 -38 0
9 12 39 0
9 -12 -39 0
3 12 40 0
3 -12 -40 0
8 13 14 0
8 -13 -14 0
6 13 15 0
6 -13 -15 0
3 13 16 0
3 -13 -16 0
10 13 17 0
10 -13 -17 0
10 13 18 0
10 -13 -18 0
9 13 19 0
9 -13 -19 0
5 13 20 0
5 -13 -20 0
6 13 21 0
6 -13 -21 0
2 13 22 0
2 -13 -22 0
3 13 23 0
3 -13 -23 0
9 13 26 0
9 -13 -26 0
5 13 27 0
5 -13 -27 0
5 13 28 0
5 -13 -28 0
9 13 29 0
9 -13 -29 0
5 13 30 0
5 -13 -30 0
3 13 32 0
3 -13 -32 0
2 13 34 0
2 -13 -34 0
7 13 35 0
7 -13 -35 0
8 13 36 0
8 -13 -36 0
2 13 37 0
2 -13 -37 0
7 13 38 0
7 -13 -38 0
5 13 40 0
5 -13 -40 0
9 14 15 0
9 -14 -15 0
8 14 16 0
8 -14 -16 0
2 14 17 0
2 -14 -17 0
3 14 19 0
3 -14 -19 0
5 14 21 0
5 -14 -21 0
2 14 22 0
2 -14 -22 0
2 14 23 0
2 -14 -23 0
4 14 24 0
4 -14 -24 0
4 14 25 0
4 -14 -25 0
10 14 26 0
10 -14 -26 0
10 14 27 0
10 -14 -27 0
7 14 28 0
7 -14 -28 0
9 14 29 0
9 -14 -29 0
9 14 31 0
9 -14 -31 0
5 14 32 0
5 -14 -32 0
4 14 33 0
4 -14 -33 0
4 14 34 0
4 -14 -34 0
7 14 35 0
7 -14 -35 0
7 14 36 0
7 -14 -36 0
3 14 37 0
3 -14 -37 0
2 14 38 0
2 -14 -38 0
1 14 39 0
1 -14 -39 0
2 14 40 0
2 -14 -40 0
7 15 16 0
7 -15 -16 0
4 15 17 0
4 -15 -17 0
3 15 18 0
3 -15 -18 0
4 15 19 0
4 -15 -19 0
1 15 20 0
1 -15 -20 0
5 15 25 0
5 -15 -25 0
10 15 26 0
10 -15 -26 0
6 15 28 0
6 -15 -28 0
3 15 29 0
3 -15 -29 0
7 15 30 0
7 -15 -30 0
8 15 31 0
8 -15 -31 0
5 15 32 0
5 -15 -32 0
2 15 33 0
2 -15 -33 0
9 15 35 0
9 -15 -35 0
7 15 36 0
7 -15 -36 0
6 15 38 0
6 -15 -38 0
3 15 39 0
3 -15 -39 0
6 15 40 0
6 -15 -40 0
5 16 17 0
5 -16 -17 0
9 16 18 0
9 -16 -18 0
4 16 19 0
4 -16 -19 0
3 16 21 0
3 -16 -21 0
4 16 22 0
4 -16 -22 0
8 16 23 0
8 -16 -23 0
7 16 25 0
7 -16 -25 0
10 16 26 0
10 -16 -26 0
4 16 29 0
4 -16 -29 0
9 16 30 0
9 -16 -30 0
2 16 31 0
2 -16 -31 0
5 16 33 0
5 -16 -33 0
1 16 35 0
1 -16 -35 0
8 16 37 0
8 -16 -37 0
8 16 38 0
8 -16 -38 0
3 16 39 0
3 -16 -39 0
2 16 40 0
2 -16 -40 0
9 17 18 0
9 -17 -18 0
8 17 20 0
8 -17 -20 0
1 17 22 0
1 -17 -22 0
5 17 25 0
5 -17 -25 0
10 17 26 0
10 -17 -26 0
8 17 27 0
8 -17 -27 0
3 17 28 0
3 -17 -28 0
5 17 29 0
5 -17 -29 0
9 17 31 0
9 -17 -31 0
1 17 33 0
1 -17 -33 0
1 17 34 0
1 -17 -34 0
4 17 35 0
4 -17 -35 0
4 17 36 0
4 -17 -36 0
7 17 38 0
7 -17 -38 0
9 17 39 0
9 -17 -39 0
2 17 40 0
2 -17 -40 0
1 18 19 0
1 -18 -19 0
1 18 20 0
1 -18 -20 0
5 18 22 0
5 -18 -22 0
8 18 24 0
8 -18 -24 0
7 18 25 0
7 -18 -25 0
5 18 26 0
5 -18 -26 0
2 18 27 0
2 -18 -27 0
6 18 28 0
6 -18 -28 0
6 18 29 0
6 -18 -29 0
6 18 32 0
6 -18 -32 0
6 18 33 0
6 -18 -33 0
4 18 34 0
4 -18 -34 0
4 18 35 0
4 -18 -35 0
9 18 37 0
9 -18 -37 0
5 18 40 0
5 -18 -40 0
2 19 22 0
2 -19 -22 0
7 19 23 0
7 -19 -23 0
6 19 24 0
6 -19 -24 0
7 19 25 0
7 -19 -25 0
6 19 26 0
6 -19 -26 0
3 19 28 0
3 -19 -28 0
9 19 29 0
9 -19 -29 0
1 19 30 0
1 -19 -30 0
1 19 31 0
1 -19 -31 0
10 19 32 0
10 -19 -32 0
2 19 33 0
2 -19 -33 0
5 19 34 0
5 -19 -34 0
3 19 35 0
3 -19 -35 0
9 19 36 0
9 -19 -36 0
3 19 37 0
3 -19 -37 0
4 19 39 0
4 -19 -39 0
9 19 40 0
9 -19 -40 0
4 20 21 0
4 -20 -21 0
9 20 22 0
9 -20 -22 0
7 20 23 0
7 -20 -23 0
1 20 26 0
1 -20 -26 0
3 20 28 0
3 -20 -28 0
8 20 29 0
8 -20 -29 0
7 20 30 0
7 -20 -30 0
9 20 32 0
9 -20 -32 0
4 20 33 0
4 -20 -33 0
3 20 34 0
3 -20 -34 0
2 20 35 0
2 -20 -35 0
7 20 36 0
7 -20 -36 0
2 20 37 0
2 -20 -37 0
7 20 38 0
7 -20 -38 0
8 20 40 0
8 -20 -40 0
8 21 22 0
8 -21 -22 0
3 21 23 0
3 -21 -23 0
5 21 24 0
5 -21 -24 0
4 21 27 0
4 -21 -27 0
5 21 29 0
5 -21 -29 0
3 21 30 0
3 -21 -30 0
4 21 32 0
4 -21 -32 0
6 21 33 0
6 -21 -33 0
2 21 35 0
2 -21 -35 0
6 21 36 0
6 -21 -36 0
1 21 37 0
1 -21 -37 0
4 21 38 0
4 -21 -38 0
4 21 40 0
4 -21 -40 0
4 22 23 0
4 -22 -23 0
8 22 24 0
8 -22 -24 0
3 22 25 0
3 -22 -25 0
7 22 26 0
7 -22 -26 0
6 22 27 0
6 -22 -27 0
10 22 29 0
10 -22 -29 0
7 22 30 0
7 -22 -30 0
9 22 31 0
9 -22 -31 0
7 22 32 0
7 -22 -32 0
4 22 34 0
4 -22 -34 0
7 22 35 0
7 -22 -35 0
1 22 36 0
1 -22 -36 0
6 22 38 0
6 -22 -38 0
9 22 40 0
9 -22 -40 0
7 23 25 0
7 -23 -25 0
7 23 26 0
7 -23 -26 0
6 23 27 0
6 -23 -27 0
5 23 28 0
5 -23 -28 0
4 23 31 0
4 -23 -31 0
8 23 32 0
8 -23 -32 0
9 23 33 0
9 -23 -33 0
7 23 34 0
7 -23 -34 0
2 23 35 0
2 -23 -35 0
1 23 37 0
1 -23 -37 0
1 23 38 0
1 -23 -38 0
7 23 39 0
7 -23 -39 0
2 24 25 0
2 -24 -25 0
7 24 26 0
7 -24 -26 0
8 24 28 0
8 -24 -28 0
6 24 29 0
6 -24 -29 0
1 24 30 0
1 -24 -30 0
1 24 31 0
1 -24 -31 0
4 24 32 0
4 -24 -32 0
3 24 33 0
3 -24 -33 0
7 24 34 0
7 -24 -34 0
9 24 36 0
9 -24 -36 0
2 24 38 0
2 -24 -38 0
4 24 39 0
4 -24 -39 0
7 24 40 0
7 -24 -40 0
9 25 26 0
9 -25 -26 0
7 25 27 0
7 -25 -27 0
4 25 28 0
4 -25 -28 0
9 25 29 0
9 -25 -29 0
2 25 30 0
2 -25 -30 0
2 25 32 0
2 -25 -32 0
6 25 33 0
6 -25 -33 0
9 25 34 0
9 -25 -34 0
7 25 36 0
7 -25 -36 0
10 25 37 0
10 -25 -37 0
2 25 38 0
2 -25 -38 0
4 25 39 0
4 -25 -39 0
8 25 40 0
8 -25 -40 0
9 26 27 0
9 -26 -27 0
6 26 28 0
6 -26 -28 0
8 26 29 0
8 -26 -29 0
10 26 30 0
10 -26 -30 0
3 26 31 0
3 -26 -31 0
10 26 32 0
10 -26 -32 0
6 26 34 0
6 -26 -34 0
10 26 35 0
10 -26 -35 0
5 26 37 0
5 -26 -37 0
6 26 38 0
6 -26 -38 0
10 26 39 0
10 -26 -39 0
8 26 40 0
8 -26 -40 0
9 27 28 0
9 -27 -28 0
6 27 29 0
6 -27 -29 0
7 27 30 0
7 -27 -30 0
10 27 32 0
10 -27 -32 0
10 27 33 0
10 -27 -33 0
4 27 34 0
4 -27 -34 0
9 27 36 0
9 -27 -36 0
6 27 37 0
6 -27 -37 0
7 27 38 0
7 -27 -38 0
8 27 40 0
8 -27 -40 0
8 28 29 0
8 -28 -29 0
8 28 30 0
8 -28 -30 0
3 28 31 0
3 -28 -31 0
7 28 32 0
7 -28 -32 0
5 28 33 0
5 -28 -33 0
2 28 34 0
2 -28 -34 0
8 28 35 0
8 -28 -35 0
9 28 36 0
9 -28 -36 0
9 28 37 0
9 -28 -37 0
7 28 38 0
7 -28 -38 0
5 28 39 0
5 -28 -39 0
7 28 40 0
7 -28 -40 0
6 29 30 0
6 -29 -30 0
7 29 31 0
7 -29 -31 0
6 29 32 0
6 -29 -32 0
2 29 34 0
2 -29 -34 0
6 29 35 0
6 -29 -35 0
1 29 36 0
1 -29 -36 0
8 29 37 0
8 -29 -37 0
6 29 38 0
6 -29 -38 0
9 29 39 0
9 -29 -39 0
6 29 40 0
6 -29 -40 0
2 30 31 0
2 -30 -31 0
5 30 32 0
5 -30 -32 0
6 30 33 0
6 -30 -33 0
1 30 34 0
1 -30 -34 0
9 30 35 0
9 -30 -35 0
4 30 36 0
4 -30 -36 0
7 30 37 0
7 -30 -37 0
5 30 38 0
5 -30 -38 0
2 30 39 0
2 -30 -39 0
5 30 40 0
5 -30 -40 0
3 31 32 0
3 -31 -32 0
5 31 33 0
5 -31 -33 0
1 31 34 0
1 -31 -34 0
8 31 35 0
8 -31 -35 0
6 31 37 0
6 -31 -37 0
9 31 38 0
9 -31 -38 0
6 31 40 0
6 -31 -40 0
5 32 33 0
5 -32 -33 0
5 32 34 0
5 -32 -34 0
10 32 36 0
10 -32 -36 0
1 32 37 0
1 -32 -37 0
1 32 38 0
1 -32 -38 0
7 32 40 0
7 -32 -40 0
6 33 35 0
6 -33 -35 0
3 33 37 0
3 -33 -37 0
3 33 38 0
3 -33 -38 0
7 33 40 0
7 -33 -40 0
10 34 35 0
10 -34 -35 0
8 34 38 0
8 -34 -38 0
5 34 39 0
5 -34 -39 0
5 34 40 0
5 -34 -40 0
9 35 36 0
9 -35 -36 0
10 35 40 0
10 -35 -40 0
10 36 39 0
10 -36 -39 0
9 36 40 0
9 -36 -40 0
8 37 39 0
8 -37 -39 0
4 37 40 0
4 -37 -40 0
6 38 40 0
6 -38 -40 0
3 39 40 0
3 -39 -40 0
